Reading model...
...model read.
creating competitive generators file...
...competitive generators recorded.
Loading data...
.. real-time data read.
Compiling instance...
...instance created.
Creating Offer Mitigation (model will solve as dispatch if TRUE)...
...storage offer mitigation file created
Converting model to MPEC...
...converted
NOTE: initial MIP solve with only storage competitive to get feasible solution
Solving...

Welcome to IBM(R) ILOG(R) CPLEX(R) Interactive Optimizer 12.10.0.0
  with Simplex, Mixed Integer & Barrier Optimizers
5725-A06 5725-A29 5724-Y48 5724-Y49 5724-Y54 5724-Y55 5655-Y21
Copyright IBM Corp. 1988, 2019.  All Rights Reserved.

Type 'help' for a list of available commands.
Type 'help' followed by a command name for more
information on commands.

CPLEX> Logfile 'cplex.log' closed.
Logfile 'C:\Users\wenmi\Desktop\competitiveMPEC\logs\tmpr7fg1e3k.cplex.log' open.
CPLEX> New value for parallel optimization mode: -1
CPLEX> New value for mixed integer optimality gap tolerance: 0.01
CPLEX> New value for feasibility tolerance: 1e-09
CPLEX> New value for deterministic time limit in ticks: 50000
CPLEX> Problem 'C:\Users\wenmi\Desktop\competitiveMPEC\logs\tmpfp0jzqmp.pyomo.lp' read.
Read time = 0.33 sec. (27.74 ticks)
CPLEX> Problem name         : C:\Users\wenmi\Desktop\competitiveMPEC\logs\tmpfp0jzqmp.pyomo.lp
Objective sense      : Maximize
Variables            :  107781  [Nneg: 1,  Box: 44056,  Free: 8928,
                                 Binary: 54796]
Objective nonzeros   :   19009
Linear constraints   :  246901  [Less: 82866,  Greater: 118424,  Equal: 45611]
  Nonzeros           :  591869
  RHS nonzeros       :  136226

Variables            : Min LB: -5000.000        Max UB: 1000000.       
Objective nonzeros   : Min   : 0.1666667        Max   : 2500.000       
Linear constraints   :
  Nonzeros           : Min   : 0.1666667        Max   : 1000000.       
  RHS nonzeros       : Min   : 0.1666667        Max   : 1000000.       
CPLEX> Version identifier: 12.10.0.0 | 2019-11-26 | 843d4de2ae
CPXPARAM_Parallel                                -1
CPXPARAM_Simplex_Tolerances_Feasibility          1.0000000000000001e-09
CPXPARAM_DetTimeLimit                            50000
CPXPARAM_MIP_Tolerances_MIPGap                   0.01
Tried aggregator 3 times.
MIP Presolve eliminated 172890 rows and 33955 columns.
MIP Presolve added 7727 rows and 0 columns.
MIP Presolve modified 52148 coefficients.
Aggregator did 26090 substitutions.
Reduced MIP has 55648 rows, 47352 columns, and 159532 nonzeros.
Reduced MIP has 18782 binaries, 0 generals, 0 SOSs, and 0 indicators.
Presolve time = 0.34 sec. (337.33 ticks)
Probing fixed 714 vars, tightened 10447 bounds.
Probing time = 0.11 sec. (23.00 ticks)
Tried aggregator 2 times.
Detecting symmetries...
MIP Presolve eliminated 1633 rows and 1456 columns.
MIP Presolve modified 7097 coefficients.
Aggregator did 80 substitutions.
Reduced MIP has 53935 rows, 45816 columns, and 154475 nonzeros.
Reduced MIP has 18063 binaries, 0 generals, 0 SOSs, and 0 indicators.
Presolve time = 0.17 sec. (280.82 ticks)
Probing fixed 5 vars, tightened 405 bounds.
Probing time = 0.20 sec. (30.15 ticks)
Clique table members: 96601.
MIP emphasis: balance optimality and feasibility.
MIP search method: dynamic search.
Parallel mode: opportunistic, using up to 16 threads.
Root relaxation solution time = 0.67 sec. (575.49 ticks)

        Nodes                                         Cuts/
   Node  Left     Objective  IInf  Best Integer    Best Bound    ItCnt     Gap

      0     0      -34.1402    22                    -34.1402       28         
      0     0      -34.1402    22                     Cuts: 8       34         
      0     0      -34.1402    22                     Cuts: 2       36         
*     0+    0                         -721.0308      -34.1402            95.27%
      0     0      -34.1402    22     -721.0308       Cuts: 2       39   95.27%
      0     4        cutoff           -721.0308      -38.9527      184   94.60%
Elapsed time = 4.91 sec. (3841.38 ticks, tree = 0.02 MB, solutions = 1)
     77    33      -51.6831     2     -721.0308      -46.1983      816   93.59%
    193    48      -57.2968     1     -721.0308      -46.1983      899   93.59%
    330   134      -59.8750     3     -721.0308      -46.1983     1312   93.59%
    478   181      -60.5362     2     -721.0308      -46.1983     1863   93.59%
    636   333      -57.3309     2     -721.0308      -46.1983     3036   93.59%
    816   350      -62.1342     3     -721.0308      -46.1983     3208   93.59%
    983   538     -125.5371     5     -721.0308      -46.1983     4913   93.59%
   1152   552      -57.2968     2     -721.0308      -46.1983     5110   93.59%
   1286   761      -61.5101     3     -721.0308      -46.1983     6420   93.59%
   2066  1230      -67.4293     3     -721.0308      -49.3333     9869   93.16%
Elapsed time = 21.80 sec. (6958.95 ticks, tree = 15.62 MB, solutions = 1)
   2746  1747      -62.3548     3     -721.0308      -50.6408    13075   92.98%
   3420  2342      -57.3558     2     -721.0308      -50.6408    16035   92.98%
   4120  2789     -163.7105     5     -721.0308      -51.6740    18790   92.83%
   4633  2926      -57.6242     3     -721.0308      -51.6740    19696   92.83%

Performing restart 1

Repeating presolve.
Tried aggregator 3 times.
MIP Presolve eliminated 10498 rows and 8324 columns.
MIP Presolve modified 80685 coefficients.
Aggregator did 392 substitutions.
Reduced MIP has 43044 rows, 37100 columns, and 117790 nonzeros.
Reduced MIP has 14469 binaries, 0 generals, 0 SOSs, and 0 indicators.
Presolve time = 0.34 sec. (354.28 ticks)
Tried aggregator 3 times.
MIP Presolve eliminated 1950 rows and 1718 columns.
MIP Presolve modified 22833 coefficients.
Aggregator did 18 substitutions.
Reduced MIP has 41076 rows, 35364 columns, and 112456 nonzeros.
Reduced MIP has 13722 binaries, 0 generals, 0 SOSs, and 0 indicators.
Presolve time = 0.11 sec. (110.00 ticks)
Tried aggregator 2 times.
MIP Presolve eliminated 845 rows and 774 columns.
MIP Presolve modified 15094 coefficients.
Aggregator did 8 substitutions.
Reduced MIP has 40223 rows, 34582 columns, and 110145 nonzeros.
Reduced MIP has 13416 binaries, 0 generals, 0 SOSs, and 0 indicators.
Presolve time = 0.08 sec. (69.94 ticks)
Tried aggregator 2 times.
MIP Presolve eliminated 108 rows and 95 columns.
MIP Presolve modified 14919 coefficients.
Aggregator did 10 substitutions.
Reduced MIP has 40105 rows, 34477 columns, and 109844 nonzeros.
Reduced MIP has 13376 binaries, 0 generals, 0 SOSs, and 0 indicators.
Presolve time = 0.13 sec. (143.30 ticks)
Represolve time = 1.53 sec. (1008.63 ticks)
   4683     0      -34.1402    51     -721.0308      Cuts: 39    34023   92.83%
   4683     0      -38.0357    51     -721.0308       Cuts: 5    34028   92.83%
   4683     0      -38.0357    51     -721.0308    GUBcuts: 1    34029   92.83%
   4683     0      -38.0357    51     -721.0308   Flowcuts: 1    34031   92.83%
   4683     0      -38.0357    51     -721.0308   Flowcuts: 1    34032   92.83%
   4683     0      -38.0357    51     -721.0308    MIRcuts: 2    34033   92.83%
   4683     9        cutoff           -721.0308      -51.6831    34244   92.83%
   4971    43      -60.5362     3     -721.0308      -51.6831    34728   92.83%
   5250   180      -63.1780     2     -721.0308      -51.6831    35582   92.83%
   5561   482     -258.4906    12     -721.0308      -51.6831    39659   92.83%
   6252   777      -73.3335     3     -721.0308      -51.6831    43820   92.83%
   7337   746        cutoff           -721.0308      -51.6831    43028   92.83%
Elapsed time = 67.80 sec. (20572.05 ticks, tree = 7.09 MB, solutions = 1)
   8507  2313      -57.3558     1     -721.0308      -51.7372    56033   92.82%
   9721  2207      -83.2431     4     -721.0308      -51.9476    55348   92.80%
  10766  3275      -57.3558     1     -721.0308      -57.1364    62069   92.08%
  11747  5131      -63.6671     3     -721.0308      -57.1514    76848   92.07%
  12725  5179    infeasible           -721.0308      -57.1514    77356   92.07%
  13799  6500     -125.5358    10     -721.0308      -57.2968    92216   92.05%
  14914  6087     -174.8277    13     -721.0308      -57.2968    87006   92.05%
  16045  7513      -57.3558     1     -721.0308      -57.2968   104406   92.05%
  17319 10550      -64.3935     3     -721.0308      -57.2968   131960   92.05%
  18555 10067      -69.4398     4     -721.0308      -57.2968   127055   92.05%
Elapsed time = 117.00 sec. (30114.82 ticks, tree = 139.78 MB, solutions = 1)
  19729  9647      -66.0980     3     -721.0308      -57.2968   123513   92.05%
  20935  9442      -60.7300     2     -721.0308      -57.2968   121897   92.05%
  22109 10993      -57.3558     1     -721.0308      -57.2968   134901   92.05%
  23302 11518      -63.6671     3     -721.0308      -57.2968   137715   92.05%
  24560 12044      -60.5362     3     -721.0308      -57.2968   141113   92.05%
  25877 14012      -61.7847     3     -721.0308      -57.2968   153031   92.05%
  27114 15617      -70.8872     4     -721.0308      -57.2968   162655   92.05%
  28217 18821      -61.7847     3     -721.0308      -57.3060   182188   92.05%
  29419 16497      -79.1886     3     -721.0308      -57.3060   168142   92.05%
  30639 16975      -60.5362     3     -721.0308      -57.3060   171057   92.05%
Elapsed time = 165.98 sec. (39661.99 ticks, tree = 238.41 MB, solutions = 1)
  31799 18063      -79.1886     3     -721.0308      -57.3060   177619   92.05%
  32943 19836      -60.5362     1     -721.0308      -57.3060   189170   92.05%
  34114 21246      -57.3558     1     -721.0308      -57.3060   197529   92.05%
  35252 21879      -80.4716     5     -721.0308      -57.3060   201393   92.05%
  36296 26589      -61.7847     3     -721.0308      -57.3060   240084   92.05%
  37332 23599      -66.0980     3     -721.0308      -57.3060   214267   92.05%
  38362 23030      -62.3936     2     -721.0308      -57.3060   209581   92.05%
  39238 25474        cutoff           -721.0308      -57.3060   231283   92.05%
  40173 24322        cutoff           -721.0308      -57.3060   221078   92.05%
  41125 26634      -63.5772     2     -721.0308      -57.3060   240676   92.05%
Elapsed time = 190.00 sec. (49207.31 ticks, tree = 377.16 MB, solutions = 1)

Cover cuts applied:  2
Implied bound cuts applied:  3
Flow cuts applied:  11
Mixed integer rounding cuts applied:  1
Lift and project cuts applied:  1
Gomory fractional cuts applied:  4

Root node processing (before b&c):
  Real time             =    4.09 sec. (3807.78 ticks)
Parallel b&c, 16 threads:
  Real time             =  186.44 sec. (46215.80 ticks)
  Sync time (average)   =    1.11 sec.
  Wait time (average)   =    0.05 sec.
                          ------------
Total (root+branch&cut) =  190.53 sec. (50023.57 ticks)

Solution pool: 1 solution saved.

MIP - Deterministic time limit exceeded, integer feasible:  Objective = -7.2103076151e+02
Current MIP best bound = -5.7355845183e+01 (gap = 663.675, 92.05%)
Solution time =  190.53 sec.  Iterations = 281454  Nodes = 41649 (31475)
Deterministic time = 50023.88 ticks  (262.55 ticks/sec)

CPLEX> Incumbent solution written to file 'C:\Users\wenmi\Desktop\competitiveMPEC\logs\tmp0t0q5z68.cplex.sol'.
CPLEX> NOTE: no warmstart specified for MIP iteration, default behavior is true
NOTE: resolving with all competitive generators using storage-only solution to warmstart
Solving...

Welcome to IBM(R) ILOG(R) CPLEX(R) Interactive Optimizer 12.10.0.0
  with Simplex, Mixed Integer & Barrier Optimizers
5725-A06 5725-A29 5724-Y48 5724-Y49 5724-Y54 5724-Y55 5655-Y21
Copyright IBM Corp. 1988, 2019.  All Rights Reserved.

Type 'help' for a list of available commands.
Type 'help' followed by a command name for more
information on commands.

CPLEX> Logfile 'cplex.log' closed.
Logfile 'C:\Users\wenmi\Desktop\competitiveMPEC\logs\tmp43e8kvsk.cplex.log' open.
CPLEX> New value for parallel optimization mode: -1
CPLEX> New value for mixed integer optimality gap tolerance: 0.01
CPLEX> New value for feasibility tolerance: 1e-09
CPLEX> New value for deterministic time limit in ticks: 50000
CPLEX> Problem 'C:\Users\wenmi\Desktop\competitiveMPEC\logs\tmp959uhmr5.pyomo.lp' read.
Read time = 0.33 sec. (27.78 ticks)
CPLEX> MIP start file 'C:\Users\wenmi\Desktop\competitiveMPEC\logs\tmpvsi7bnqn.cplex.mst' read.
CPLEX> Problem name         : C:\Users\wenmi\Desktop\competitiveMPEC\logs\tmp959uhmr5.pyomo.lp
Objective sense      : Maximize
Variables            :  109221  [Nneg: 1,  Box: 45496,  Free: 8928,
                                 Binary: 54796]
Objective nonzeros   :   20401
Linear constraints   :  246901  [Less: 82866,  Greater: 118424,  Equal: 45611]
  Nonzeros           :  591869
  RHS nonzeros       :  136226

Variables            : Min LB: -5000.000        Max UB: 1000000.       
Objective nonzeros   : Min   : 0.1666667        Max   : 2500.000       
Linear constraints   :
  Nonzeros           : Min   : 0.1666667        Max   : 1000000.       
  RHS nonzeros       : Min   : 0.1666667        Max   : 1000000.       
CPLEX> Version identifier: 12.10.0.0 | 2019-11-26 | 843d4de2ae
CPXPARAM_Parallel                                -1
CPXPARAM_Simplex_Tolerances_Feasibility          1.0000000000000001e-09
CPXPARAM_DetTimeLimit                            50000
CPXPARAM_MIP_Tolerances_MIPGap                   0.01
1 of 1 MIP starts provided solutions.
MIP start 'm1' defined initial solution with objective -536.3158.
Tried aggregator 3 times.
MIP Presolve eliminated 172890 rows and 35395 columns.
MIP Presolve added 7727 rows and 0 columns.
MIP Presolve modified 52148 coefficients.
Aggregator did 26090 substitutions.
Reduced MIP has 55648 rows, 47352 columns, and 159532 nonzeros.
Reduced MIP has 18782 binaries, 0 generals, 0 SOSs, and 0 indicators.
Presolve time = 0.34 sec. (338.06 ticks)
Probing fixed 714 vars, tightened 10447 bounds.
Probing time = 0.11 sec. (23.00 ticks)
Tried aggregator 2 times.
Detecting symmetries...
MIP Presolve eliminated 1633 rows and 1456 columns.
MIP Presolve modified 7097 coefficients.
Aggregator did 80 substitutions.
Reduced MIP has 53935 rows, 45816 columns, and 154475 nonzeros.
Reduced MIP has 18063 binaries, 0 generals, 0 SOSs, and 0 indicators.
Presolve time = 0.19 sec. (280.83 ticks)
Probing fixed 5 vars, tightened 358 bounds.
Probing time = 0.20 sec. (27.21 ticks)
Clique table members: 97315.
MIP emphasis: balance optimality and feasibility.
MIP search method: dynamic search.
Parallel mode: opportunistic, using up to 16 threads.
Root relaxation solution time = 0.77 sec. (605.64 ticks)

        Nodes                                         Cuts/
   Node  Left     Objective  IInf  Best Integer    Best Bound    ItCnt     Gap

*     0+    0                         -536.3158   1.31341e+07              --- 
      0     0      -34.1402    26     -536.3158      -34.1402       32   93.63%
*     0+    0                         -536.3158      -34.1402            93.63%
      0     9    infeasible           -536.3158      -34.1402       64   93.63%
Elapsed time = 4.61 sec. (4097.46 ticks, tree = 0.02 MB, solutions = 2)
     77    63      -57.3309     2     -536.3158      -45.8267      761   91.46%
    211    61      -57.4631     3     -536.3158      -45.8267      827   91.46%
    361    61    infeasible           -536.3158      -45.8267      751   91.46%
    519   134      -57.8523     2     -536.3158      -45.8267     1806   91.46%
    676   311      -60.5362     2     -536.3158      -45.8267     3750   91.46%
    854   491      -53.9537     2     -536.3158      -45.8267     5052   91.46%
   1043   436      -91.5695     2     -536.3158      -45.8267     4669   91.46%
   1207   444     -180.1672     7     -536.3158      -45.8267     4740   91.46%
   1372   451     -185.4079     8     -536.3158      -45.8267     4781   91.46%
   1999   946     -192.4418     4     -536.3158      -49.3333     9100   90.80%
Elapsed time = 23.64 sec. (7211.54 ticks, tree = 11.26 MB, solutions = 2)
   2648  1674     -189.3598     4     -536.3158      -49.3333    14571   90.80%
   3345  1658      -87.3611     3     -536.3158      -49.3333    14516   90.80%
   4058  1994      -87.3611     3     -536.3158      -49.3333    16522   90.80%
   4703  2589      -60.5362     3     -536.3158      -49.3333    20537   90.80%

Performing restart 1

Repeating presolve.
Tried aggregator 3 times.
MIP Presolve eliminated 10378 rows and 8035 columns.
MIP Presolve modified 76839 coefficients.
Aggregator did 395 substitutions.
Reduced MIP has 43161 rows, 37386 columns, and 118199 nonzeros.
Reduced MIP has 14509 binaries, 0 generals, 0 SOSs, and 0 indicators.
Presolve time = 0.36 sec. (348.93 ticks)
Tried aggregator 4 times.
MIP Presolve eliminated 3951 rows and 3743 columns.
MIP Presolve modified 22536 coefficients.
Aggregator did 40 substitutions.
Reduced MIP has 39170 rows, 33603 columns, and 107176 nonzeros.
Reduced MIP has 13048 binaries, 0 generals, 0 SOSs, and 0 indicators.
Presolve time = 0.13 sec. (127.09 ticks)
Tried aggregator 2 times.
MIP Presolve eliminated 770 rows and 712 columns.
MIP Presolve modified 15985 coefficients.
Aggregator did 23 substitutions.
Reduced MIP has 38377 rows, 32868 columns, and 105067 nonzeros.
Reduced MIP has 12764 binaries, 0 generals, 0 SOSs, and 0 indicators.
Presolve time = 0.06 sec. (69.31 ticks)
Tried aggregator 2 times.
MIP Presolve eliminated 57 rows and 43 columns.
MIP Presolve modified 15953 coefficients.
Aggregator did 8 substitutions.
Reduced MIP has 38312 rows, 32817 columns, and 104901 nonzeros.
Reduced MIP has 12743 binaries, 0 generals, 0 SOSs, and 0 indicators.
Presolve time = 0.14 sec. (130.11 ticks)
Represolve time = 1.86 sec. (1120.30 ticks)
   5056     0      -34.1402   178     -536.3158       Cuts: 3    37115   90.80%
   5056     0      -34.1402   178     -536.3158       Cuts: 2    37119   90.80%
   5056     0      -34.1402   178     -536.3158      Cuts: 11    37121   90.80%
   5056     0      -34.7837   178     -536.3158       Cuts: 5    37139   90.80%
   5056     0      -34.7837   178     -536.3158       Cuts: 7    37144   90.80%
   5056    10        cutoff           -536.3158      -49.3333    37250   90.80%
   5383    49      -60.5362     2     -536.3158      -49.3333    37509   90.80%
   5674   266      -73.3335     4     -536.3158      -49.3333    38686   90.80%
   6305   423      -61.7847     2     -536.3158      -49.3333    40518   90.80%
   7065  1076      -61.7847     4     -536.3158      -50.6408    48955   90.56%
   7948  1349      -57.3558     1     -536.3158      -50.6408    53086   90.56%
Elapsed time = 70.86 sec. (22673.20 ticks, tree = 14.51 MB, solutions = 2)
   9012  1744      -59.6259     3     -536.3158      -56.2254    58064   89.52%
  10115  2379      -60.5362     2     -536.3158      -57.2968    67063   89.32%
  11137  3027      -98.6890     6     -536.3158      -57.2968    76911   89.32%
  12093  3744      -57.7400     3     -536.3158      -57.2968    86851   89.32%
  12847  4297      -61.2505     5     -536.3158      -57.2968    93841   89.32%
  13720  4883        cutoff           -536.3158      -57.2968   101902   89.32%
  14668  5529      -61.7847     4     -536.3158      -57.2968   110325   89.32%
  15638  5147      -60.5362     3     -536.3158      -57.2968   105896   89.32%
  16747  6207    infeasible           -536.3158      -57.2968   118110   89.32%
  17880  7194     -167.7374    11     -536.3158      -57.2968   128302   89.32%
Elapsed time = 119.34 sec. (32214.44 ticks, tree = 94.53 MB, solutions = 2)
  19163  7377        cutoff           -536.3158      -57.2968   130468   89.32%
  20387  8513      -57.3558     1     -536.3158      -57.2968   142572   89.32%
  21587  9989      -59.6041     3     -536.3158      -57.2968   159506   89.32%
  22644 10529        cutoff           -536.3158      -57.2968   165031   89.32%
  23731 10870      -62.7480     5     -536.3158      -57.2968   168875   89.32%
  24795 11218      -73.3335     4     -536.3158      -57.2968   171546   89.32%
  25801 13363    infeasible           -536.3158      -57.2968   195229   89.32%
  26866 14803      -67.9280     4     -536.3158      -57.2968   209950   89.32%
  28007 16656      -57.3389     2     -536.3158      -57.2968   228018   89.32%
  29128 19100      -68.7193     5     -536.3158      -57.2968   253329   89.32%
Elapsed time = 165.58 sec. (41758.90 ticks, tree = 258.99 MB, solutions = 2)
  30223 15827      -63.0498     3     -536.3158      -57.2968   219602   89.32%
  31372 19223      -59.6041     3     -536.3158      -57.2968   254385   89.32%
  32654 17696      -63.0498     3     -536.3158      -57.2968   238718   89.32%
  33727 19206      -68.7193     4     -536.3158      -57.2968   254135   89.32%
  34645 19470      -57.9818     2     -536.3158      -57.2968   256491   89.32%
  35515 20065      -60.4934     4     -536.3158      -57.2968   261884   89.32%
  36395 20743      -73.3035     5     -536.3158      -57.2968   267530   89.32%
  37153 21943      -68.7193     5     -536.3158      -57.2968   278519   89.32%

Implied bound cuts applied:  1
Flow cuts applied:  2
Mixed integer rounding cuts applied:  1
Lift and project cuts applied:  1
Gomory fractional cuts applied:  2

Root node processing (before b&c):
  Real time             =    3.94 sec. (4080.60 ticks)
Parallel b&c, 16 threads:
  Real time             =  181.20 sec. (45950.15 ticks)
  Sync time (average)   =    1.07 sec.
  Wait time (average)   =    0.05 sec.
                          ------------
Total (root+branch&cut) =  185.14 sec. (50030.74 ticks)

Solution pool: 2 solutions saved.

MIP - Deterministic time limit exceeded, integer feasible:  Objective = -5.3631580076e+02
Current MIP best bound = -5.7304872714e+01 (gap = 479.011, 89.32%)
Solution time =  185.16 sec.  Iterations = 319504  Nodes = 37515 (26176)
Deterministic time = 50031.05 ticks  (270.21 ticks/sec)

CPLEX> Incumbent solution written to file 'C:\Users\wenmi\Desktop\competitiveMPEC\logs\tmps4uhstjh.cplex.sol'.
CPLEX> Exporting results... 
